/* Objective function */

min:70X1 + 70X2 + 70X3 + 70X4 + 70X5 + 70X6 + 70X7 + 70X8 + 70X9 + 70X10 + 70X11 + 70X12
+ 1.5I1 + 1.5I2 + 1.5I3 + 1.5I4 + 1.5I5 + 1.5I6 + 1.5I7 + 1.5I8 + 1.5I9 + 1.5I10 + 1.5I11 + 1.5I12
+ 2.5R1 + 2.5R2 + 2.5R3 + 2.5R4 + 2.5R5 + 2.5R6 + 2.5R7 + 2.5R8 + 2.5R9 + 2.5R10 + 2.5R11 + 2.5R12
+ 3M1 + 3M2 + 3M3 + 3M4 + 3M5 + 3M6 + 3M7 + 3M8 + 3M9 + 3M10 + 3M11 + 3M12
+ 5.5O1 + 5.5O2 + 5.5O3 + 5.5O4 + 5.5O5 + 5.5O6 + 5.5O7 + 5.5O8 + 5.5O9 + 5.5O10 + 5.5O11 + 5.5O12
+ 4U1 + 4U2 + 4U3 + 4U4 + 4U5 + 4U6 + 4U7 + 4U8 + 4U9 + 4U10 + 4U11 + 4U12;

/* Constraints */
 
     X1 + 900 -I1 = 1600;
     X2 + I1 - I2 = 1200;
     X3 + I2 - I3 = 1550;
     X4 + I3 - I4 = 1700;
     X5 + I4 - I5 = 2200;
     X6 + I5 - I6 = 3200;
     X7 + I6 - I7 = 2900;
     X8 + I7 - I8 = 2000;
     X9 + I8 - I9 = 2400;
     X10 + I9 - I10 = 1500;
     X11 + I10 - I11 = 1500;
     X12 + I11 - I12 = 1800;
     
     X1 - O1 + U1 = 2100;
     X2 - O2 + U2 = 2100;
     X3 - O3 + U3 = 2100;
     X4 - O4 + U4 = 2100;
     X5 - O5 + U5 = 2100;
     X6 - O6 + U6 = 2100;
     X7 - O7 + U7 = 2100;
     X8 - O8 + U8 = 2100;
     X9 - O9 + U9 = 2100;
     X10 - O10 + U10 = 2100;
     X11 - O11 + U11 = 2100;
     X12 - O12 + U12 = 2100;
     
     X1 - 1400 = R1 - M1;
     X2 - X1 = R2 - M2;
     X3 - X2 = R3 - M3;
     X4 - X3 = R4 - M4;
     X5 - X4 = R5 - M5;
     X6 - X5 = R6 - M6;
     X7 - X6 = R7 - M7;
     X8 - X7 = R8 - M8;
     X9 - X8 = R9 - M9;
     X10 - X9 = R10 - M10;
     X11 - X10 = R11 - M11;
     X12 - X11 = R12 - M12;

/* Variable bounds */
